200 1350
119 690 826 569 402 665 75 1005 421 484 980 90 718 869 191 1336 677 880 1048 614 1187 1243 388 1207 350 453 896 775 998 469 991 201 853 346 921 263 449 456 946 1022 742 773 128 579 860 747 430 951 1217 589 1074 581 242 1346 882 372 1006 883 700 234 4 81 932 1131 313 567 243 671 1209 649 638 231 413 142 45 735 975 267 615 552 894 445 194 549 575 949 1087 757 79 395 140 794 163 656 525 419 434 855 371 1030 769 938 658 341 936 20 1146 487 587 321 472 349 360 85 528 119 67 704 218 108 1131 1280 832 726 487 645 742 339 1069 231 54 521 310 1243 1251 15 141 621 181 624 1339 1328 416 112 346 62 8 64 190 259 82 63 1314 395 547 455 140 470 462 520 469 1232 287 770 1086 1327 743 933 14 772 375 590 458 1248 531 838 1173 887 858 1304 1184 926 1212 990 223 821 1241 988 412 623 219 103 849 802 1099 1167 1048 21 567 654 